NAME : problems/30-tsp/instance-23.tsp
COMMENT : No Comment
TYPE : TSP
DIMENSION: 30
EDGE_WEIGHT_TYPE : EUC_2D
NODE_COORD_SECTION
1 1497 4522 
2 7288 1245 
3 1276 9481 
4 9548 1585 
5 8882 8951 
6 2154 2692 
7 4279 2556 
8 2313 445 
9 1241 9229 
10 48 730 
11 8644 5611 
12 5660 6544 
13 8683 3909 
14 97 5456 
15 984 4155 
16 3242 6418 
17 1363 5292 
18 5324 1214 
19 3668 484 
20 7837 5903 
21 4664 3731 
22 5951 3101 
23 4343 202 
24 2416 7293 
25 393 253 
26 4021 101 
27 4379 3464 
28 1212 2055 
29 3713 8363 
30 1753 547 
EOF
